gil262_1
0 175 236 94 69 143 226 237 50 114 255 174 71 213 257 52 36 187 115 125 78 5 169 137 14 182 70 195 48 232 77 229 162 201 133 165 126 2 76 15 116 37 258 168 204 196 98 161 251 10 192 75 199 60 208 129 190 239 32 121 170 72 122 104 4 110 252 224 57 191 228 49 234 97 144 109 79 148 27 5 22 54 209 180 29 238 183 193 181 18 202 124 85 210 197 31 203 12 149 61 141 233 154 214 167 166 198 112 157 256 120 3 127 93 46 107 40 172 152 153 227 20 158 74 261 55 235 51 5 68 254 231 28 147 189 81 0